Version identifier: 12.10.0.0 | 2019-11-26 | 843d4de
CPXPARAM_WorkMem                                 28672
Tried aggregator 2 times.
MIP Presolve eliminated 14 rows and 0 columns.
MIP Presolve added 28 rows and 0 columns.
Aggregator did 40 substitutions.
Reduced MIP has 76 rows, 70 columns, and 314 nonzeros.
Reduced MIP has 70 binaries, 0 generals, 0 SOSs, and 0 indicators.
Presolve time = 0,00 sec. (0,63 ticks)
Found incumbent of value 54,000000 after 0,00 sec. (0,73 ticks)
Probing fixed 2 vars, tightened 0 bounds.
Probing time = 0,00 sec. (0,36 ticks)
Tried aggregator 1 time.
Detecting symmetries...
MIP Presolve eliminated 2 rows and 2 columns.
Reduced MIP has 74 rows, 68 columns, and 302 nonzeros.
Reduced MIP has 68 binaries, 0 generals, 0 SOSs, and 0 indicators.
Presolve time = 0,00 sec. (0,26 ticks)
Probing time = 0,00 sec. (0,33 ticks)
Clique table members: 315.
MIP emphasis: balance optimality and feasibility.
MIP search method: dynamic search.
Parallel mode: deterministic, using up to 16 threads.
Root relaxation solution time = 0,00 sec. (0,16 ticks)

        Nodes                                         Cuts/
   Node  Left     Objective  IInf  Best Integer    Best Bound    ItCnt     Gap

*     0+    0                           54,0000        2,0000            96,30%
*     0+    0                           49,0000        2,0000            95,92%
      0     0       31,0000    66       49,0000       31,0000       30   36,73%
      0     0       39,5520    66       49,0000      Cuts: 98       90   19,28%
      0     0       41,3879    66       49,0000      Cuts: 88      129   15,53%
      0     0       42,0483    66       49,0000      Cuts: 71      172   14,19%
      0     0       42,2113    66       49,0000      Cuts: 39      195   13,85%
      0     0       42,3663    66       49,0000      Cuts: 46      205   13,54%
Detecting symmetries...
      0     0       42,4153    66       49,0000      Cuts: 49      215   13,44%
      0     0       42,4838    66       49,0000      Cuts: 20      224   13,30%
      0     0       42,5233    66       49,0000      Cuts: 18      240   13,22%
      0     0       42,5605    66       49,0000      Cuts: 12      251   13,14%
      0     0       42,5964    66       49,0000      Cuts: 24      257   13,07%
      0     0       42,6116    66       49,0000      Cuts: 20      265   13,04%
      0     0       42,6867    66       49,0000      Cuts: 59      284   12,88%
      0     0       42,7119    66       49,0000      Cuts: 10      292   12,83%
      0     0       42,7394    66       49,0000      Cuts: 33      296   12,78%
      0     0       42,7424    66       49,0000      Cuts: 17      301   12,77%
      0     0       42,7618    66       49,0000      Cuts: 15      322   12,73%
      0     0       42,7668    66       49,0000      Cuts: 18      328   12,72%
      0     0        cutoff             49,0000       49,0000      328    0,00%
Elapsed time = 0,04 sec. (29,97 ticks, tree = 0,01 MB, solutions = 2)

Cover cuts applied:  3
Implied bound cuts applied:  13
Mixed integer rounding cuts applied:  4
Zero-half cuts applied:  20
Gomory fractional cuts applied:  7

Root node processing (before b&c):
  Real time             =    0,04 sec. (29,97 ticks)
Parallel b&c, 16 threads:
  Real time             =    0,00 sec. (0,00 ticks)
  Sync time (average)   =    0,00 sec.
  Wait time (average)   =    0,00 sec.
                          ------------
Total (root+branch&cut) =    0,04 sec. (29,97 ticks)
